\ENCODING=ISO-8859-1
\Problem name: MCF_Model

Minimize
 obj: 10000 X_01,01_01 + 10000 X_01,02_01 + 10 X_01,03_01 + 12 X_01,04_01
      + 10000 X_01,05_01 + 10000 X_01,06_01 + 10000 X_02,01_01
      + 10000 X_02,02_01 + 8 X_02,03_01 + 10 X_02,04_01 + 10000 X_02,05_01
      + 10000 X_02,06_01 + 10000 X_03,01_01 + 10000 X_03,02_01
      + 10000 X_03,03_01 + 3 X_03,04_01 + 25 X_03,05_01 + 20 X_03,06_01
      + 10000 X_04,01_01 + 10000 X_04,02_01 + 3 X_04,03_01 + 10000 X_04,04_01
      + 25 X_04,05_01 + 20 X_04,06_01 + 10000 X_05,01_01 + 10000 X_05,02_01
      + 10000 X_05,03_01 + 10000 X_05,04_01 + 10000 X_05,05_01
      + 10000 X_05,06_01 + 10000 X_06,01_01 + 10000 X_06,02_01
      + 10000 X_06,03_01 + 10000 X_06,04_01 + 10000 X_06,05_01
      + 10000 X_06,06_01 + 10000 X_01,01_02 + 10000 X_01,02_02 + 10 X_01,03_02
      + 12 X_01,04_02 + 10000 X_01,05_02 + 10000 X_01,06_02 + 10000 X_02,01_02
      + 10000 X_02,02_02 + 8 X_02,03_02 + 10 X_02,04_02 + 10000 X_02,05_02
      + 10000 X_02,06_02 + 10000 X_03,01_02 + 10000 X_03,02_02
      + 10000 X_03,03_02 + 3 X_03,04_02 + 25 X_03,05_02 + 20 X_03,06_02
      + 10000 X_04,01_02 + 10000 X_04,02_02 + 3 X_04,03_02 + 10000 X_04,04_02
      + 25 X_04,05_02 + 20 X_04,06_02 + 10000 X_05,01_02 + 10000 X_05,02_02
      + 10000 X_05,03_02 + 10000 X_05,04_02 + 10000 X_05,05_02
      + 10000 X_05,06_02 + 10000 X_06,01_02 + 10000 X_06,02_02
      + 10000 X_06,03_02 + 10000 X_06,04_02 + 10000 X_06,05_02
      + 10000 X_06,06_02
Subject To
 FlowBalanceNode1_1: - X_01,01_01 + X_01,02_01 + X_01,03_01 + X_01,04_01
                     + X_01,05_01 + X_01,06_01 - X_02,01_01 - X_03,01_01
                     - X_04,01_01 - X_05,01_01 - X_06,01_01  = 2000
 FlowBalanceNode1_2: - X_01,01_02 + X_01,02_02 + X_01,03_02 + X_01,04_02
                     + X_01,05_02 + X_01,06_02 - X_02,01_02 - X_03,01_02
                     - X_04,01_02 - X_05,01_02 - X_06,01_02  = 150
 FlowBalanceNode2_1: - X_01,02_01 + X_02,01_01 - X_02,02_01 + X_02,03_01
                     + X_02,04_01 + X_02,05_01 + X_02,06_01 - X_03,02_01
                     - X_04,02_01 - X_05,02_01 - X_06,02_01  = 3000
 FlowBalanceNode2_2: - X_01,02_02 + X_02,01_02 - X_02,02_02 + X_02,03_02
                     + X_02,04_02 + X_02,05_02 + X_02,06_02 - X_03,02_02
                     - X_04,02_02 - X_05,02_02 - X_06,02_02  = 200
 FlowBalanceNode3_1: - X_01,03_01 - X_02,03_01 + X_03,01_01 + X_03,02_01
                     - X_03,03_01 + X_03,04_01 + X_03,05_01 + X_03,06_01
                     - X_04,03_01 - X_05,03_01 - X_06,03_01  = -1500
 FlowBalanceNode3_2: - X_01,03_02 - X_02,03_02 + X_03,01_02 + X_03,02_02
                     - X_03,03_02 + X_03,04_02 + X_03,05_02 + X_03,06_02
                     - X_04,03_02 - X_05,03_02 - X_06,03_02  = -100
 FlowBalanceNode4_1: - X_01,04_01 - X_02,04_01 - X_03,04_01 + X_04,01_01
                     + X_04,02_01 + X_04,03_01 - X_04,04_01 + X_04,05_01
                     + X_04,06_01 - X_05,04_01 - X_06,04_01  = -1000
 FlowBalanceNode4_2: - X_01,04_02 - X_02,04_02 - X_03,04_02 + X_04,01_02
                     + X_04,02_02 + X_04,03_02 - X_04,04_02 + X_04,05_02
                     + X_04,06_02 - X_05,04_02 - X_06,04_02  = -50
 FlowBalanceNode5_1: - X_01,05_01 - X_02,05_01 - X_03,05_01 - X_04,05_01
                     + X_05,01_01 + X_05,02_01 + X_05,03_01 + X_05,04_01
                     - X_05,05_01 + X_05,06_01 - X_06,05_01  = -1500
 FlowBalanceNode5_2: - X_01,05_02 - X_02,05_02 - X_03,05_02 - X_04,05_02
                     + X_05,01_02 + X_05,02_02 + X_05,03_02 + X_05,04_02
                     - X_05,05_02 + X_05,06_02 - X_06,05_02  = -150
 FlowBalanceNode6_1: - X_01,06_01 - X_02,06_01 - X_03,06_01 - X_04,06_01
                     - X_05,06_01 + X_06,01_01 + X_06,02_01 + X_06,03_01
                     + X_06,04_01 + X_06,05_01 - X_06,06_01  = -1000
 FlowBalanceNode6_2: - X_01,06_02 - X_02,06_02 - X_03,06_02 - X_04,06_02
                     - X_05,06_02 + X_06,01_02 + X_06,02_02 + X_06,03_02
                     + X_06,04_02 + X_06,05_02 - X_06,06_02  = -50
 CapacityLink1_1_2:  X_01,01_01 + X_01,01_02  = 0
 CapacityLink1_2_2:  X_01,02_01 + X_01,02_02  = 0
 CapacityLink1_3_2:  X_01,03_01 + X_01,03_02 - RgCapacityLink1_3_2  = 0
 CapacityLink1_4_2:  X_01,04_01 + X_01,04_02 - RgCapacityLink1_4_2  = 0
 CapacityLink1_5_2:  X_01,05_01 + X_01,05_02  = 0
 CapacityLink1_6_2:  X_01,06_01 + X_01,06_02  = 0
 CapacityLink2_1_2:  X_02,01_01 + X_02,01_02  = 0
 CapacityLink2_2_2:  X_02,02_01 + X_02,02_02  = 0
 CapacityLink2_3_2:  X_02,03_01 + X_02,03_02 - RgCapacityLink2_3_2  = 0
 CapacityLink2_4_2:  X_02,04_01 + X_02,04_02 - RgCapacityLink2_4_2  = 0
 CapacityLink2_5_2:  X_02,05_01 + X_02,05_02  = 0
 CapacityLink2_6_2:  X_02,06_01 + X_02,06_02  = 0
 CapacityLink3_1_2:  X_03,01_01 + X_03,01_02  = 0
 CapacityLink3_2_2:  X_03,02_01 + X_03,02_02  = 0
 CapacityLink3_3_2:  X_03,03_01 + X_03,03_02  = 0
 CapacityLink3_4_2:  X_03,04_01 + X_03,04_02 - RgCapacityLink3_4_2  = 0
 CapacityLink3_5_2:  X_03,05_01 + X_03,05_02 - RgCapacityLink3_5_2  = 0
 CapacityLink3_6_2:  X_03,06_01 + X_03,06_02 - RgCapacityLink3_6_2  = 0
 CapacityLink4_1_2:  X_04,01_01 + X_04,01_02  = 0
 CapacityLink4_2_2:  X_04,02_01 + X_04,02_02  = 0
 CapacityLink4_3_2:  X_04,03_01 + X_04,03_02 - RgCapacityLink4_3_2  = 0
 CapacityLink4_4_2:  X_04,04_01 + X_04,04_02  = 0
 CapacityLink4_5_2:  X_04,05_01 + X_04,05_02 - RgCapacityLink4_5_2  = 0
 CapacityLink4_6_2:  X_04,06_01 + X_04,06_02 - RgCapacityLink4_6_2  = 0
 CapacityLink5_1_2:  X_05,01_01 + X_05,01_02  = 0
 CapacityLink5_2_2:  X_05,02_01 + X_05,02_02  = 0
 CapacityLink5_3_2:  X_05,03_01 + X_05,03_02  = 0
 CapacityLink5_4_2:  X_05,04_01 + X_05,04_02  = 0
 CapacityLink5_5_2:  X_05,05_01 + X_05,05_02  = 0
 CapacityLink5_6_2:  X_05,06_01 + X_05,06_02  = 0
 CapacityLink6_1_2:  X_06,01_01 + X_06,01_02  = 0
 CapacityLink6_2_2:  X_06,02_01 + X_06,02_02  = 0
 CapacityLink6_3_2:  X_06,03_01 + X_06,03_02  = 0
 CapacityLink6_4_2:  X_06,04_01 + X_06,04_02  = 0
 CapacityLink6_5_2:  X_06,05_01 + X_06,05_02  = 0
 CapacityLink6_6_2:  X_06,06_01 + X_06,06_02  = 0
Bounds
      X_01,01_01 >= 0
      X_01,02_01 >= 0
      X_01,03_01 >= 0
      X_01,04_01 >= 0
      X_01,05_01 >= 0
      X_01,06_01 >= 0
      X_02,01_01 >= 0
      X_02,02_01 >= 0
      X_02,03_01 >= 0
      X_02,04_01 >= 0
      X_02,05_01 >= 0
      X_02,06_01 >= 0
      X_03,01_01 >= 0
      X_03,02_01 >= 0
      X_03,03_01 >= 0
      X_03,04_01 >= 0
      X_03,05_01 >= 0
      X_03,06_01 >= 0
      X_04,01_01 >= 0
      X_04,02_01 >= 0
      X_04,03_01 >= 0
      X_04,04_01 >= 0
      X_04,05_01 >= 0
      X_04,06_01 >= 0
      X_05,01_01 >= 0
      X_05,02_01 >= 0
      X_05,03_01 >= 0
      X_05,04_01 >= 0
      X_05,05_01 >= 0
      X_05,06_01 >= 0
      X_06,01_01 >= 0
      X_06,02_01 >= 0
      X_06,03_01 >= 0
      X_06,04_01 >= 0
      X_06,05_01 >= 0
      X_06,06_01 >= 0
      X_01,01_02 >= 0
      X_01,02_02 >= 0
      X_01,03_02 >= 0
      X_01,04_02 >= 0
      X_01,05_02 >= 0
      X_01,06_02 >= 0
      X_02,01_02 >= 0
      X_02,02_02 >= 0
      X_02,03_02 >= 0
      X_02,04_02 >= 0
      X_02,05_02 >= 0
      X_02,06_02 >= 0
      X_03,01_02 >= 0
      X_03,02_02 >= 0
      X_03,03_02 >= 0
      X_03,04_02 >= 0
      X_03,05_02 >= 0
      X_03,06_02 >= 0
      X_04,01_02 >= 0
      X_04,02_02 >= 0
      X_04,03_02 >= 0
      X_04,04_02 >= 0
      X_04,05_02 >= 0
      X_04,06_02 >= 0
      X_05,01_02 >= 0
      X_05,02_02 >= 0
      X_05,03_02 >= 0
      X_05,04_02 >= 0
      X_05,05_02 >= 0
      X_05,06_02 >= 0
      X_06,01_02 >= 0
      X_06,02_02 >= 0
      X_06,03_02 >= 0
      X_06,04_02 >= 0
      X_06,05_02 >= 0
      X_06,06_02 >= 0
 0 <= RgCapacityLink1_3_2 <= 1700
 0 <= RgCapacityLink1_4_2 <= 500
 0 <= RgCapacityLink2_3_2 <= 2000
 0 <= RgCapacityLink2_4_2 <= 1200
 0 <= RgCapacityLink3_4_2 <= 250
 0 <= RgCapacityLink3_5_2 <= 1000
 0 <= RgCapacityLink3_6_2 <= 800
 0 <= RgCapacityLink4_3_2 <= 250
 0 <= RgCapacityLink4_5_2 <= 800
 0 <= RgCapacityLink4_6_2 <= 300
Generals
 X_01,01_01  X_01,02_01  X_01,03_01  X_01,04_01  X_01,05_01  X_01,06_01 
 X_02,01_01  X_02,02_01  X_02,03_01  X_02,04_01  X_02,05_01  X_02,06_01 
 X_03,01_01  X_03,02_01  X_03,03_01  X_03,04_01  X_03,05_01  X_03,06_01 
 X_04,01_01  X_04,02_01  X_04,03_01  X_04,04_01  X_04,05_01  X_04,06_01 
 X_05,01_01  X_05,02_01  X_05,03_01  X_05,04_01  X_05,05_01  X_05,06_01 
 X_06,01_01  X_06,02_01  X_06,03_01  X_06,04_01  X_06,05_01  X_06,06_01 
 X_01,01_02  X_01,02_02  X_01,03_02  X_01,04_02  X_01,05_02  X_01,06_02 
 X_02,01_02  X_02,02_02  X_02,03_02  X_02,04_02  X_02,05_02  X_02,06_02 
 X_03,01_02  X_03,02_02  X_03,03_02  X_03,04_02  X_03,05_02  X_03,06_02 
 X_04,01_02  X_04,02_02  X_04,03_02  X_04,04_02  X_04,05_02  X_04,06_02 
 X_05,01_02  X_05,02_02  X_05,03_02  X_05,04_02  X_05,05_02  X_05,06_02 
 X_06,01_02  X_06,02_02  X_06,03_02  X_06,04_02  X_06,05_02  X_06,06_02 
End
